25
14200 5750
3100 3300
10358 7103
11400 10800
14200 11650
4493 7102
10150 8450
5608 7103
19800 12200
14200 8450
3600 10800
5400 11650
9450 5750
19800 800
14900 11650
15108 7103
16150 2300
7300 3300
13100 6950
4492 10052
8350 10800
5400 1600
16150 10800
7850 7250
10360 10053
